
Gurobi 10.0.1 (linux64) logging started Sun Nov 26 16:56:40 2023

Set parameter LogFile to value "ArtificialInstance/ExperimentV2/S4T3K3/AdRo/gurobi91.txt"
Gurobi Optimizer version 10.0.1 build v10.0.1rc0 (linux64)

CPU model: AMD EPYC 7H12 64-Core Processor, instruction set [SSE2|AVX|AVX2]
Thread count: 128 physical cores, 128 logical processors, using up to 32 threads

Academic license 656792 - for non-commercial use only - registered to b.___@student.vu.nl
Optimize a model with 16074 rows, 15631 columns and 60426 nonzeros
Model fingerprint: 0x682f6255
Variable types: 1 continuous, 15630 integer (15630 binary)
Coefficient statistics:
  Matrix range     [1e+00, 4e+01]
  Objective range  [1e+00, 2e+01]
  Bounds range     [1e+00, 1e+00]
  RHS range        [1e+00, 1e+00]
Presolve removed 4076 rows and 4287 columns
Presolve time: 0.44s
Presolved: 11998 rows, 11344 columns, 44719 nonzeros
Variable types: 1 continuous, 11343 integer (11343 binary)

Root relaxation: objective 7.547882e+01, 11077 iterations, 1.67 seconds (1.39 work units)

    Nodes    |    Current Node    |     Objective Bounds      |     Work
 Expl Unexpl |  Obj  Depth IntInf | Incumbent    BestBd   Gap | It/Node Time

     0     0   75.47882    0 1116          -   75.47882      -     -    2s
H    0     0                     162.4909776   75.47882  53.5%     -    2s
H    0     0                     151.1228453   75.47882  50.1%     -    2s
     0     0   77.25427    0 1329  151.12285   77.25427  48.9%     -    3s
H    0     0                     104.6534865   77.25427  26.2%     -    4s
H    0     0                      99.3603348   77.25427  22.2%     -    5s
H    0     0                      95.0956949   78.08967  17.9%     -    6s
     0     0   78.08967    0 1405   95.09569   78.08967  17.9%     -    6s
     0     0   78.08967    0 1405   95.09569   78.08967  17.9%     -    6s
     0     0   78.70202    0 1479   95.09569   78.70202  17.2%     -    7s
H    0     0                      83.6515095   79.00761  5.55%     -    8s
     0     0   79.00761    0 1377   83.65151   79.00761  5.55%     -    8s
     0     0   79.00880    0 1376   83.65151   79.00880  5.55%     -    8s
     0     0   79.00889    0 1379   83.65151   79.00889  5.55%     -    8s
     0     0   79.52462    0 1405   83.65151   79.52462  4.93%     -    8s
     0     0   79.52462    0 1097   83.65151   79.52462  4.93%     -   10s
     0     0   79.52462    0 1201   83.65151   79.52462  4.93%     -   11s
     0     0   79.59410    0 1309   83.65151   79.59410  4.85%     -   11s
     0     0   79.59410    0 1301   83.65151   79.59410  4.85%     -   11s
     0     0   79.99108    0 1379   83.65151   79.99108  4.38%     -   12s
     0     0   79.99148    0 1364   83.65151   79.99148  4.38%     -   12s
H    0     0                      80.7136073   79.99148  0.89%     -   12s
     0     0   79.99575    0 1375   80.71361   79.99575  0.89%     -   12s
     0     0     cutoff    0        80.71361   80.71361  0.00%     -   12s

Explored 1 nodes (45810 simplex iterations) in 12.58 seconds (8.21 work units)
Thread count was 32 (of 128 available processors)

Solution count 7: 80.7136 83.6515 95.0957 ... 162.491

Optimal solution found (tolerance 1.00e-04)
Best objective 8.071360731187e+01, best bound 8.071360731187e+01, gap 0.0000%
